<number of tasks>
32

<cycle time>
2357

<task times>
1 458
2 276
3 520
4 1400
5 352
6 196
7 214
8 456
9 646
10 512
11 408
12 262
13 544
14 202
15 458
16 694
17 616
18 678
19 328
20 324
21 100
22 352
23 544
24 500
25 382
26 858
27 388
28 352
29 428
30 238
31 258
32 196

<precedence relations>
1,5
2,6
3,9
4,15
5,6
6,7
6,8
6,9
7,21
8,21
9,10
9,11
10,16
11,12
12,13
13,14
13,15
14,16
14,17
15,17
16,18
17,19
18,21
19,20
20,21
21,22
21,23
21,24
22,25
23,32
24,32
25,26
26,27
27,28
28,29
29,30
30,31
31,32

<setup times forward>
1,2:134
1,3:134
2,1:134
2,4:134
2,5:134
3,1:134
3,4:134
3,5:134
3,7:88
3,8:186
3,9:186
4,2:134
4,3:134
4,6:134
4,7:46
4,8:52
4,9:52
4,10:52
4,11:52
4,12:52
4,13:46
4,14:46
4,15:31
4,16:46
4,18:46
5,2:134
5,3:134
5,6:134
6,4:134
6,7:88
6,8:186
6,9:186
7,3:88
7,4:46
7,8:98
7,9:98
7,10:98
7,11:98
7,12:98
7,15:15
7,17:15
7,19:15
7,20:15
7,21:15
8,3:186
8,4:52
8,7:98
8,13:98
8,14:98
8,15:83
8,16:98
8,17:83
8,18:98
8,19:83
8,20:83
8,21:83
9,4:52
9,7:98
10,4:52
10,7:98
10,13:98
10,14:98
10,15:83
10,16:98
10,17:83
10,19:83
10,20:83
11,4:52
11,7:98
12,4:52
12,7:98
12,13:98
13,4:46
13,8:98
13,10:98
13,15:15
14,4:46
14,8:98
14,10:98
14,15:15
14,17:15
15,7:15
15,8:83
15,10:83
15,14:15
15,16:15
15,18:15
16,4:46
16,8:98
16,15:15
16,17:15
16,19:15
16,20:15
17,7:15
17,8:83
17,10:83
17,16:15
17,18:15
18,4:46
18,8:98
18,15:15
18,17:15
18,19:15
18,20:15
18,21:15
19,7:15
19,8:83
19,10:83
19,16:15
19,18:15
20,7:15
20,8:83
20,10:83
20,16:15
20,18:15
21,23:107
21,24:107
22,23:107
22,24:107
22,25:107
23,22:107
23,27:70
23,28:70
23,29:70
23,30:70
23,31:70
23,32:70
24,22:107
24,27:70
24,28:70
24,29:70
24,30:70
24,31:70
24,32:70
26,27:70
27,23:70
27,24:70
28,23:70
28,24:70
29,23:70
29,24:70
30,23:70
30,24:70
31,23:70
31,24:70

<setup times backward>
1,1:25
1,4:25
2,1:159
2,2:25
2,3:25
2,4:159
2,5:159
3,1:159
3,2:25
3,3:25
3,4:159
3,5:159
3,6:25
3,7:113
3,8:211
4,1:25
4,4:25
4,5:25
4,8:77
4,9:77
4,10:77
4,11:77
4,12:77
5,1:25
5,4:25
5,5:25
6,1:159
6,2:25
6,3:25
6,4:159
6,5:159
6,6:25
7,1:71
7,4:71
7,5:71
7,7:25
7,8:123
7,9:123
7,10:123
7,11:123
7,12:123
7,13:25
7,14:25
7,15:40
7,16:25
7,17:40
7,18:25
7,19:40
7,20:40
8,8:25
8,9:25
8,10:25
8,11:25
8,12:25
9,8:25
9,9:25
10,8:25
10,9:25
10,10:25
10,11:25
10,12:25
11,8:25
11,9:25
11,10:25
11,11:25
12,8:25
12,9:25
12,10:25
12,11:25
12,12:25
13,1:71
13,4:71
13,5:71
13,7:25
13,8:123
13,9:123
13,10:123
13,11:123
13,12:123
13,13:25
14,1:71
14,4:71
14,5:71
14,7:25
14,8:123
14,9:123
14,10:123
14,11:123
14,12:123
14,13:25
14,14:25
14,15:40
15,1:56
15,4:56
15,5:56
15,7:10
15,8:108
15,9:108
15,10:108
15,11:108
15,12:108
15,13:10
15,14:10
15,15:25
15,16:10
15,18:10
16,1:71
16,4:71
16,5:71
16,7:25
16,8:123
16,9:123
16,10:123
16,11:123
16,12:123
16,13:25
16,14:25
16,15:40
16,16:25
16,17:40
16,19:40
16,20:40
17,1:56
17,4:56
17,5:56
17,7:10
17,8:108
17,9:108
17,10:108
17,11:108
17,12:108
17,13:10
17,14:10
17,15:25
17,16:10
17,17:25
17,18:10
18,1:71
18,4:71
18,5:71
18,7:25
18,8:123
18,9:123
18,10:123
18,11:123
18,12:123
18,13:25
18,14:25
18,15:40
18,16:25
18,17:40
18,18:25
18,19:40
18,20:40
19,1:56
19,4:56
19,5:56
19,7:10
19,8:108
19,9:108
19,10:108
19,11:108
19,12:108
19,13:10
19,14:10
19,15:25
19,16:10
19,17:25
19,18:10
19,19:25
20,1:56
20,4:56
20,5:56
20,7:10
20,8:108
20,9:108
20,10:108
20,11:108
20,12:108
20,13:10
20,14:10
20,15:25
20,16:10
20,17:25
20,18:10
20,19:25
20,20:25
21,1:56
21,4:56
21,5:56
21,7:10
21,8:108
21,9:108
21,10:108
21,11:108
21,12:108
21,13:10
21,14:10
21,15:25
21,16:10
21,17:25
21,18:10
21,19:25
21,20:25
21,21:25
22,1:56
22,4:56
22,5:56
22,7:10
22,8:108
22,9:108
22,10:108
22,11:108
22,12:108
22,13:10
22,14:10
22,15:25
22,16:10
22,17:25
22,18:10
22,19:25
22,20:25
22,21:25
22,22:25
22,23:132
22,24:132
23,8:1
23,9:1
23,10:1
23,11:1
23,12:1
23,23:25
23,24:25
23,25:25
23,26:25
24,8:1
24,9:1
24,10:1
24,11:1
24,12:1
24,23:25
24,24:25
24,25:25
24,26:25
25,8:1
25,9:1
25,10:1
25,11:1
25,12:1
25,23:25
25,24:25
25,25:25
26,8:1
26,9:1
26,10:1
26,11:1
26,12:1
26,23:25
26,24:25
26,25:25
26,26:25
27,1:19
27,4:19
27,5:19
27,8:71
27,9:71
27,10:71
27,11:71
27,12:71
27,23:95
27,24:95
27,25:95
27,26:95
27,27:25
28,1:19
28,4:19
28,5:19
28,8:71
28,9:71
28,10:71
28,11:71
28,12:71
28,23:95
28,24:95
28,25:95
28,26:95
28,27:25
28,28:25
29,1:19
29,4:19
29,5:19
29,8:71
29,9:71
29,10:71
29,11:71
29,12:71
29,23:95
29,24:95
29,25:95
29,26:95
29,27:25
29,28:25
29,29:25
30,1:19
30,4:19
30,5:19
30,8:71
30,9:71
30,10:71
30,11:71
30,12:71
30,23:95
30,24:95
30,25:95
30,26:95
30,27:25
30,28:25
30,29:25
30,30:25
31,1:19
31,4:19
31,5:19
31,8:71
31,9:71
31,10:71
31,11:71
31,12:71
31,23:95
31,24:95
31,25:95
31,26:95
31,27:25
31,28:25
31,29:25
31,30:25
31,31:25
32,1:19
32,4:19
32,5:19
32,8:71
32,9:71
32,10:71
32,11:71
32,12:71
32,23:95
32,24:95
32,25:95
32,26:95
32,27:25
32,28:25
32,29:25
32,30:25
32,31:25
32,32:25

<end>

<optimal SALBP-1 value>
7


<rand seed>
467321153

<Lower Bounds>
Lm1=6
Lms1=6
Lm2=1
Lm3=1
Lm4=7
Best=7

<Optimal Stations (Iterations: 10)>
7
